
100
26067

346 415
215 288
905 845
522 444
569 529
552 552
370 339
653 640
922 901
160 72
556 561
219 265
600 656
629 624
112 46
90 113
482 529
791 859
842 798
725 824
110 138
283 351
622 577
415 367
269 231
842 923
589 636
354 399
559 477
788 700
816 760
795 780
319 335
986 968
774 764
246 271
113 172
342 431
213 261
810 878
80 10
880 818
94 162
889 812
487 433
105 132
1034 986
417 419
1010 979
373 323
323 238
572 556
138 195
608 578
740 708
642 642
39 6
768 668
361 269
507 454
857 859
899 867
68 132
10 92
703 754
455 432
801 708
698 647
1019 990
779 861
1061 995
813 903
509 569
421 408
222 163
751 840
545 492
515 486
325 294
345 331
599 505
712 643
216 310
233 150
627 596
1041 945
652 562
961 979
109 181
891 797
443 538
20 32
117 175
783 721
751 819
156 132
630 684
912 888
225 241
891 829
